1373.06 0
0 42 44 58 50 27 30 38 28 24 26 0
0 46 52 45 43 48 51 39 0
0 65 64 68 63 59 0
0 1 4 3 2 5 10 72 73 71 0
0 67 61 62 66 60 9 8 75 7 6 74 69 16 70 0
0 15 18 19 22 20 0
0 53 41 0
0 21 11 23 13 14 17 12 37 35 32 25 31 34 29 33 36 0
0 56 40 49 55 54 47 57 0
